148,490
225,554
681,346
690,347
586,219
573,193
629,334
681,286
681,76
281,202
411,406
567,443
601,446
641,486
994,507
1020,745
1166,563
868,501
390,617
589,691
644,643
681,736
727,702
713,613
677,377
773,691
570,748
826,301
